95 32 3 65 21 69 10 44 70 86 94 93 83 63 37 1 52 92 24 42 49 43 26 96 50 87 14 23 18 97 56 91 16 19 2 61 98 11 99 59 85 0 72 20 30 5 40 39 84 8 71 80 53 58 12 60 66 6 41 34 81 54 51 82 31 28 13 46 75 4 25 29 68 78 73 45 79 76 74 57 15 47 38 33 7 89 35 9 77 62 36 17 48 67 88 64 22 55 27 90 

